Version identifier: 22.1.0.0 | 2022-03-09 | 1a383f8ce
CPXPARAM_Threads                                 1
CPXPARAM_MIP_Strategy_VariableSelect             3
CPXPARAM_TimeLimit                               599.99541139899998
Tried aggregator 1 time.
MIP Presolve eliminated 16 rows and 0 columns.
MIP Presolve modified 1 coefficients.
Reduced MIP has 2012 rows, 5020 columns, and 47820 nonzeros.
Reduced MIP has 5020 binaries, 0 generals, 0 SOSs, and 0 indicators.
Presolve time = 0.03 sec. (22.06 ticks)
Found incumbent of value 0.000000 after 0.10 sec. (64.94 ticks)

Root node processing (before b&c):
  Real time             =    0.10 sec. (65.14 ticks)
Sequential b&c:
  Real time             =    0.00 sec. (0.00 ticks)
                          ------------
Total (root+branch&cut) =    0.10 sec. (65.14 ticks)
Version identifier: 22.1.0.0 | 2022-03-09 | 1a383f8ce
CPXPARAM_Threads                                 1
CPXPARAM_MIP_Strategy_VariableSelect             3
CPXPARAM_TimeLimit                               599.86720373699995
Tried aggregator 1 time.
MIP Presolve eliminated 16 rows and 0 columns.
MIP Presolve modified 1 coefficients.
Reduced MIP has 3012 rows, 7520 columns, and 71820 nonzeros.
Reduced MIP has 7520 binaries, 0 generals, 0 SOSs, and 0 indicators.
Presolve time = 0.04 sec. (32.84 ticks)
Probing time = 0.01 sec. (4.01 ticks)
Tried aggregator 1 time.
Detecting symmetries...
Reduced MIP has 3012 rows, 7520 columns, and 71820 nonzeros.
Reduced MIP has 7520 binaries, 0 generals, 0 SOSs, and 0 indicators.
Presolve time = 0.05 sec. (41.68 ticks)
Probing time = 0.01 sec. (4.01 ticks)
Clique table members: 1872.
MIP emphasis: balance optimality and feasibility.
MIP search method: dynamic search.
Parallel mode: none, using 1 thread.
Root relaxation solution time = 0.08 sec. (72.90 ticks)

        Nodes                                         Cuts/
   Node  Left     Objective  IInf  Best Integer    Best Bound    ItCnt     Gap

      0     0        0.0000   475                      0.0000     1130         
*     0+    0                            0.0000        0.0000             0.00%
      0     0        cutoff              0.0000        0.0000     1130    0.00%
Elapsed time = 0.81 sec. (626.05 ticks, tree = 0.01 MB, solutions = 1)

Root node processing (before b&c):
  Real time             =    0.82 sec. (626.28 ticks)
Sequential b&c:
  Real time             =    0.00 sec. (0.00 ticks)
                          ------------
Total (root+branch&cut) =    0.82 sec. (626.28 ticks)
Version identifier: 22.1.0.0 | 2022-03-09 | 1a383f8ce
CPXPARAM_Threads                                 1
CPXPARAM_MIP_Strategy_VariableSelect             3
CPXPARAM_TimeLimit                               599.00614601899997
Tried aggregator 1 time.
MIP Presolve eliminated 16 rows and 0 columns.
Reduced MIP has 3508 rows, 8760 columns, and 83724 nonzeros.
Reduced MIP has 8760 binaries, 0 generals, 0 SOSs, and 0 indicators.
Presolve time = 0.05 sec. (38.21 ticks)
Probing time = 0.01 sec. (4.28 ticks)
Tried aggregator 1 time.
Detecting symmetries...
Reduced MIP has 3508 rows, 8760 columns, and 83724 nonzeros.
Reduced MIP has 8760 binaries, 0 generals, 0 SOSs, and 0 indicators.
Presolve time = 0.06 sec. (48.58 ticks)
Probing time = 0.01 sec. (4.28 ticks)
Clique table members: 2182.
MIP emphasis: balance optimality and feasibility.
MIP search method: dynamic search.
Parallel mode: none, using 1 thread.
Root relaxation solution time = 0.25 sec. (222.32 ticks)

        Nodes                                         Cuts/
   Node  Left     Objective  IInf  Best Integer    Best Bound    ItCnt     Gap

      0     0        0.0000   989                      0.0000     2230         
*     0+    0                            0.0000        0.0000             0.00%
      0     0        cutoff              0.0000        0.0000     2230    0.00%
Elapsed time = 2.31 sec. (1930.93 ticks, tree = 0.01 MB, solutions = 1)

Root node processing (before b&c):
  Real time             =    2.31 sec. (1931.20 ticks)
Sequential b&c:
  Real time             =    0.00 sec. (0.00 ticks)
                          ------------
Total (root+branch&cut) =    2.31 sec. (1931.20 ticks)
Version identifier: 22.1.0.0 | 2022-03-09 | 1a383f8ce
CPXPARAM_Threads                                 1
CPXPARAM_MIP_Strategy_VariableSelect             3
CPXPARAM_TimeLimit                               596.64634463300001
Tried aggregator 1 time.
MIP Presolve eliminated 16 rows and 0 columns.
Reduced MIP has 3756 rows, 9380 columns, and 89676 nonzeros.
Reduced MIP has 9380 binaries, 0 generals, 0 SOSs, and 0 indicators.
Presolve time = 0.05 sec. (40.82 ticks)
Probing time = 0.01 sec. (4.41 ticks)
Tried aggregator 1 time.
Detecting symmetries...
Reduced MIP has 3756 rows, 9380 columns, and 89676 nonzeros.
Reduced MIP has 9380 binaries, 0 generals, 0 SOSs, and 0 indicators.
Presolve time = 0.06 sec. (51.93 ticks)
Probing time = 0.01 sec. (4.41 ticks)
Clique table members: 2337.
MIP emphasis: balance optimality and feasibility.
MIP search method: dynamic search.
Parallel mode: none, using 1 thread.
Root relaxation solution time = 0.90 sec. (823.30 ticks)

        Nodes                                         Cuts/
   Node  Left     Objective  IInf  Best Integer    Best Bound    ItCnt     Gap

      0     0        0.0000  1416                      0.0000     4191         
*     0+    0                            0.0000        0.0000             0.00%
      0     0        cutoff              0.0000        0.0000     4191    0.00%
Elapsed time = 7.62 sec. (6777.06 ticks, tree = 0.01 MB, solutions = 1)

Root node processing (before b&c):
  Real time             =    7.62 sec. (6777.34 ticks)
Sequential b&c:
  Real time             =    0.00 sec. (0.00 ticks)
                          ------------
Total (root+branch&cut) =    7.62 sec. (6777.34 ticks)
Version identifier: 22.1.0.0 | 2022-03-09 | 1a383f8ce
CPXPARAM_Threads                                 1
CPXPARAM_MIP_Strategy_VariableSelect             3
CPXPARAM_TimeLimit                               588.96851002899996
Tried aggregator 1 time.
MIP Presolve eliminated 16 rows and 0 columns.
Reduced MIP has 3884 rows, 9700 columns, and 92748 nonzeros.
Reduced MIP has 9700 binaries, 0 generals, 0 SOSs, and 0 indicators.
Presolve time = 0.05 sec. (42.26 ticks)
Probing time = 0.01 sec. (4.48 ticks)
Tried aggregator 1 time.
Detecting symmetries...
Reduced MIP has 3884 rows, 9700 columns, and 92748 nonzeros.
Reduced MIP has 9700 binaries, 0 generals, 0 SOSs, and 0 indicators.
Presolve time = 0.06 sec. (53.77 ticks)
Probing time = 0.01 sec. (4.48 ticks)
Clique table members: 2417.
MIP emphasis: balance optimality and feasibility.
MIP search method: dynamic search.
Parallel mode: none, using 1 thread.
Root relaxation solution time = 0.96 sec. (874.45 ticks)

        Nodes                                         Cuts/
   Node  Left     Objective  IInf  Best Integer    Best Bound    ItCnt     Gap

      0     0        0.0000  1684                      0.0000     4371         
*     0+    0                            0.0000        0.0000             0.00%
      0     0        cutoff              0.0000        0.0000     4371    0.00%
Elapsed time = 9.43 sec. (8396.87 ticks, tree = 0.01 MB, solutions = 1)

Root node processing (before b&c):
  Real time             =    9.43 sec. (8397.17 ticks)
Sequential b&c:
  Real time             =    0.00 sec. (0.00 ticks)
                          ------------
Total (root+branch&cut) =    9.43 sec. (8397.17 ticks)
Version identifier: 22.1.0.0 | 2022-03-09 | 1a383f8ce
CPXPARAM_Threads                                 1
CPXPARAM_MIP_Strategy_VariableSelect             3
CPXPARAM_TimeLimit                               579.483656322
Tried aggregator 1 time.
MIP Presolve eliminated 16 rows and 0 columns.
Reduced MIP has 3948 rows, 9860 columns, and 94284 nonzeros.
Reduced MIP has 9860 binaries, 0 generals, 0 SOSs, and 0 indicators.
Presolve time = 0.05 sec. (42.89 ticks)
Probing time = 0.01 sec. (4.51 ticks)
Tried aggregator 1 time.
Detecting symmetries...
Reduced MIP has 3948 rows, 9860 columns, and 94284 nonzeros.
Reduced MIP has 9860 binaries, 0 generals, 0 SOSs, and 0 indicators.
Presolve time = 0.06 sec. (54.58 ticks)
Probing time = 0.01 sec. (4.51 ticks)
Clique table members: 2457.
MIP emphasis: balance optimality and feasibility.
MIP search method: dynamic search.
Parallel mode: none, using 1 thread.
Root relaxation solution time = 1.33 sec. (1217.92 ticks)

        Nodes                                         Cuts/
   Node  Left     Objective  IInf  Best Integer    Best Bound    ItCnt     Gap

      0     0        0.0000  1825                      0.0000     5389         
*     0+    0                            0.0000        0.0000             0.00%
      0     0        cutoff              0.0000        0.0000     5389    0.00%
Elapsed time = 14.38 sec. (13232.96 ticks, tree = 0.01 MB, solutions = 1)

Root node processing (before b&c):
  Real time             =   14.38 sec. (13233.27 ticks)
Sequential b&c:
  Real time             =    0.00 sec. (0.00 ticks)
                          ------------
Total (root+branch&cut) =   14.38 sec. (13233.27 ticks)
Version identifier: 22.1.0.0 | 2022-03-09 | 1a383f8ce
CPXPARAM_Threads                                 1
CPXPARAM_MIP_Strategy_VariableSelect             3
CPXPARAM_TimeLimit                               565.044772126
Tried aggregator 1 time.
MIP Presolve eliminated 16 rows and 0 columns.
Reduced MIP has 3980 rows, 9940 columns, and 95052 nonzeros.
Reduced MIP has 9940 binaries, 0 generals, 0 SOSs, and 0 indicators.
Presolve time = 0.05 sec. (43.30 ticks)
Probing time = 0.01 sec. (4.53 ticks)
Tried aggregator 1 time.
Detecting symmetries...
Reduced MIP has 3980 rows, 9940 columns, and 95052 nonzeros.
Reduced MIP has 9940 binaries, 0 generals, 0 SOSs, and 0 indicators.
Presolve time = 0.07 sec. (55.09 ticks)
Probing time = 0.01 sec. (4.53 ticks)
Clique table members: 2477.
MIP emphasis: balance optimality and feasibility.
MIP search method: dynamic search.
Parallel mode: none, using 1 thread.
Root relaxation solution time = 1.54 sec. (1407.14 ticks)

        Nodes                                         Cuts/
   Node  Left     Objective  IInf  Best Integer    Best Bound    ItCnt     Gap

      0     0        0.0000  1914                      0.0000     5824         
      0     0        0.0000   757                    Cuts: 30    10349         
*     0+    0                            0.0000        0.0000             0.00%
      0     0        cutoff              0.0000        0.0000    10349    0.00%
Elapsed time = 38.75 sec. (35968.56 ticks, tree = 0.01 MB, solutions = 1)

Clique cuts applied:  24
Zero-half cuts applied:  2

Root node processing (before b&c):
  Real time             =   38.75 sec. (35968.87 ticks)
Sequential b&c:
  Real time             =    0.00 sec. (0.00 ticks)
                          ------------
Total (root+branch&cut) =   38.75 sec. (35968.87 ticks)
Version identifier: 22.1.0.0 | 2022-03-09 | 1a383f8ce
CPXPARAM_Threads                                 1
CPXPARAM_MIP_Strategy_VariableSelect             3
CPXPARAM_TimeLimit                               526.23517787100002
Tried aggregator 1 time.
MIP Presolve eliminated 16 rows and 0 columns.
Reduced MIP has 3996 rows, 9980 columns, and 95436 nonzeros.
Reduced MIP has 9980 binaries, 0 generals, 0 SOSs, and 0 indicators.
Presolve time = 0.05 sec. (43.41 ticks)
Probing time = 0.01 sec. (4.54 ticks)
Tried aggregator 1 time.
Detecting symmetries...
Reduced MIP has 3996 rows, 9980 columns, and 95436 nonzeros.
Reduced MIP has 9980 binaries, 0 generals, 0 SOSs, and 0 indicators.
Presolve time = 0.07 sec. (55.25 ticks)
Probing time = 0.01 sec. (4.54 ticks)
Clique table members: 2487.
MIP emphasis: balance optimality and feasibility.
MIP search method: dynamic search.
Parallel mode: none, using 1 thread.
Root relaxation solution time = 1.66 sec. (1536.40 ticks)

        Nodes                                         Cuts/
   Node  Left     Objective  IInf  Best Integer    Best Bound    ItCnt     Gap

      0     0        0.0000  1917                      0.0000     6058         
*     0+    0                            0.0000        0.0000             0.00%
      0     0        cutoff              0.0000        0.0000     6058    0.00%
Elapsed time = 14.98 sec. (13472.03 ticks, tree = 0.01 MB, solutions = 1)

Root node processing (before b&c):
  Real time             =   14.98 sec. (13472.33 ticks)
Sequential b&c:
  Real time             =    0.00 sec. (0.00 ticks)
                          ------------
Total (root+branch&cut) =   14.98 sec. (13472.33 ticks)
Version identifier: 22.1.0.0 | 2022-03-09 | 1a383f8ce
CPXPARAM_Threads                                 1
CPXPARAM_MIP_Strategy_VariableSelect             3
CPXPARAM_TimeLimit                               511.19338976799997
Tried aggregator 1 time.
MIP Presolve eliminated 16 rows and 0 columns.
Reduced MIP has 4004 rows, 10000 columns, and 95628 nonzeros.
Reduced MIP has 10000 binaries, 0 generals, 0 SOSs, and 0 indicators.
Presolve time = 0.06 sec. (43.56 ticks)
Probing time = 0.01 sec. (4.54 ticks)
Tried aggregator 1 time.
Detecting symmetries...
Reduced MIP has 4004 rows, 10000 columns, and 95628 nonzeros.
Reduced MIP has 10000 binaries, 0 generals, 0 SOSs, and 0 indicators.
Presolve time = 0.07 sec. (55.44 ticks)
Probing time = 0.01 sec. (4.54 ticks)
Clique table members: 2492.
MIP emphasis: balance optimality and feasibility.
MIP search method: dynamic search.
Parallel mode: none, using 1 thread.
Root relaxation solution time = 2.24 sec. (2069.76 ticks)

        Nodes                                         Cuts/
   Node  Left     Objective  IInf  Best Integer    Best Bound    ItCnt     Gap

      0     0        0.0000  1989                      0.0000     7088         
      0     0        0.0000   332                  Cliques: 1     9998         
      0     0        0.0000    12                    Fract: 2    10413         
      0     0        0.0000     8                    Cuts: 14    10640         
      0     0        0.0000    32                 ZeroHalf: 1    10898         
*     0+    0                            0.0000        0.0000             0.00%
      0     0        cutoff              0.0000        0.0000    10898    0.00%
Elapsed time = 42.08 sec. (43690.92 ticks, tree = 0.01 MB, solutions = 1)

Clique cuts applied:  9
Zero-half cuts applied:  2

Root node processing (before b&c):
  Real time             =   42.08 sec. (43691.57 ticks)
Sequential b&c:
  Real time             =    0.00 sec. (0.00 ticks)
                          ------------
Total (root+branch&cut) =   42.08 sec. (43691.57 ticks)
Primal:	500
Dual:	500
Status:	Optimal
Time:	130.933
Sequence:
	19
	5
	12
	19
	5
	6
	19
	2
	5
	8
	10
	18
	3
	9
	1
	3
	9
	2
	14
	9
	18
	3
	9
	4
	3
	10
	6
	3
	10
	6
	14
	10
	18
	17
	10
	4
	8
	10
	18
	17
	10
	1
	8
	10
	4
	17
	10
	18
	17
	10
	4
	8
	10
	1
	17
	13
	7
	8
	13
	7
	17
	13
	5
	8
	10
	5
	17
	10
	4
	8
	10
	2
	17
	13
	7
	8
	13
	7
	8
	13
	7
	8
	0
	7
	3
	13
	11
	3
	13
	11
	14
	0
	11
	3
	13
	15
	14
	0
	15
	18
	16
	7
	6
	16
	7
	6
	16
	7
	6
	16
	7
	6
	16
	7
	18
	16
	15
	4
	16
	15
	5
	16
	11
	5
	16
	15
	5
	16
	11
	5
	16
	11
	1
	16
	15
	5
	16
	11
	1
	16
	11
	1
	16
	15
	5
	16
	11
	1
	16
	15
	4
	16
	2
	6
	19
	2
	12
	19
	2
	1
	19
	6
	5
	19
	6
	18
	19
	1
	18
	19
	12
	2
	19
	12
	2
	19
	6
	5
	19
	6
	5
	19
	12
	4
	19
	6
	2
	19
	12
	5
	19
	5
	12
	19
	2
	12
	19
	5
	6
	19
	4
	6
	16
	1
	11
	16
	4
	11
	16
	4
	12
	19
	2
	12
	19
	18
	12
	19
	5
	1
	19
	12
	18
	19
	12
	5
	19
	6
	5
	19
	6
	4
	19
	6
	5
	19
	6
	2
	19
	12
	18
	19
	6
	18
	19
	6
	4
	19
	6
	18
	16
	15
	4
	16
	11
	4
	14
	9
	2
	14
	9
	2
	3
	9
	18
	14
	9
	2
	14
	9
	18
	3
	9
	18
	14
	9
	1
	3
	9
	18
	14
	9
	18
	14
	9
	5
	14
	9
	1
	14
	9
	18
	14
	9
	18
	3
	9
	4
	14
	10
	2
	17
	10
	2
	8
	7
	0
	17
	7
	0
	3
	15
	0
	14
	11
	13
	3
	11
	13
	3
	15
	13
	3
	15
	13
	3
	15
	0
	3
	15
	0
	14
	15
	13
	3
	11
	13
	4
	17
	13
	7
	8
	0
	18
	17
	10
	4
	8
	10
	1
	8
	10
	1
	14
	10
	18
	3
	9
	18
	14
	9
	4
	3
	9
	18
	14
	9
	1
	14
	13
	7
	8
	13
	7
	17
	0
	18
	18
	19
	1
	18
	19
	6
	18
	19
	5
	18
	19
	2
	12
	19
	5
	6
	19
	2
	4
	10
	8
	4
	10
	8
	1
	10
	8
	2
	0
	15
	14
	0
	11
	14
	0
	15
	3
	13
	15
	3
	18
	9
	14
	2
	9
	3
	18
	11
	13
	4
	8
	10
	2
	17
	10
	5
	8
	10
	5
	8
	10
	2
	17
	7
	13
	17
	7
	0
	17
	7
	0
	8
	7
	13
	17
	7
	0
	17
	2
	10
	17
	2
	10
	8
	4
	10
	8
	2
	0
	8
	7
	13
	8
	7
	0
	8
	7
	0
	3
	11
	13
	3
	11
	0
	14
	15
	0
	14
	15
	0
	14
	15
	13
	3
	11
	0
	14
	5
	9
	14
	1
	11
	16
